!d3
!nopop
!noautostart
!sp
!def2-tzvp
!b3lyp
%pal
    nprocs 2 
end

%output
    jsonpropfile true
    jsongbwfile true
end

* xyz 0 1
O            -3.5662600000000002             1.7763899999999999             0.0000000000000000
H            -2.5962600000000000             1.7763899999999999             0.0000000000000000
H            -3.8895900000000001             1.3604000000000001            -0.8144400000000001
*
