!d3
!nopop
!noautostart
!opt
!def2-tzvp
!b3lyp
%pal
    nprocs 32
end

%output
    jsonpropfile true
    jsongbwfile true
end

* xyz 0 1
O            -3.5757076135165899             1.7824679430305499             0.0118996127834800
H            -2.6134624913899600             1.7662987458680099            -0.0197570158303300
H            -3.8629398950934402             1.3644133111014400            -0.8065825969531500
*
